
  32    1
  10

   0   0  10 2 3 4 5 6 7 8 9 13 16 
  10   8   6 28 26 23 18 14 10 
   1   5   6 29 25 24 19 12 11 
   6   9   5 29 26 23 19 10 
   4  10   7 31 26 25 24 23 19 17 
   3   8   4 26 25 17 11 
   3  10   5 29 26 23 17 15 
   2   6   5 25 24 23 19 18 
   4   3   6 30 28 27 23 21 20 
   8  10   4 27 24 21 17 
   8   7   2 23 18 
   2  10   2 23 17 
   6   6   2 24 17 
   8  10   3 27 25 21 
   9  10   3 28 22 20 
   4   8   1 18 
   7  10   2 22 20 
   6  10   2 21 20 
   4   8   1 21 
   5   7   1 32
   3   9   1 32
   1   6   1 32
  10   7   1 32
   9   8   1 32
   1  10   1 32
   1   9   1 32
   7  10   1 32
  10   5   1 32
   2   5   1 32
   6   7   1 32
   7   9   1 32
   0   0   0 
